(set-logic ALL)
(declare-const BAV1 Bool)
(declare-const GEN1 Int)
(declare-datatypes () ((Enum0 (cons (data Int)) (None))))
(declare-datatypes () ((Enum1 (cons (data Bool)) (None))))
(declare-fun var_0 () Enum0)
(declare-fun var_1 () Enum1)
(assert (= (data var_0) GEN1))
(assert (data var_1))
(assert (= BAV1 (= (data var_0) GEN1)))
(check-sat)
(get-model)